(declare-const tmp Int)
(declare-const |y':58| Int)
(declare-const |K:68| Int)
(declare-const |tmp':60| Int)
(declare-const |w':59| Int)
(declare-const |z':56| Int)
(declare-const |x':57| Int)
(declare-const |havoc:12:54| Int)
(assert (and (or (not (and (<= (- |K:68|) 0) (<= |K:68| 0)))
                   (= (+ |w':59| (* -2 |K:68|)) 0))
               (or (not (<= (+ (- |K:68|) 1) 0))
                     (= (+ |w':59| (* -2 |K:68|)) 0))
               (or (not (and (<= (- |K:68|) 0) (<= |K:68| 0)))
                     (= (+ |y':58| (- |K:68|)) 0))
               (or (not (<= (+ (- |K:68|) 1) 0)) (= (+ |y':58| (- |K:68|)) 0))
               (or (not (and (<= (- |K:68|) 0) (<= |K:68| 0)))
                     (<= (+ (* -2 |z':56|) (* 3 (* |K:68| |K:68|))
                              (* -3 |K:68|) 2) 0))
               (or (not (<= (+ (- |K:68|) 1) 0))
                     (<= (+ (* -2 |z':56|) (* 3 (* |K:68| |K:68|))
                              (* -3 |K:68|) 2) 0))
               (or (not (<= (- |K:68|) 0)) (<= (+ |x':57| (- |K:68|)) 0))
               (or (not (<= (- |K:68|) 0)) (<= (- |x':57|) 0))
               (or (and (= |K:68| 0) (= (+ (- |tmp':60|) tmp) 0)
                          (= (- |w':59|) 0) (= (- |y':58|) 0)
                          (= (- |x':57|) 0) (= (+ (- |z':56|) 1) 0))
                     (and (<= (+ (- |K:68|) 1) 0)
                            (= (+ (* -2 |y':58|) |w':59|) 0)
                            (<= (+ (- (mod |z':56| 2)) |x':57| (- |z':56|)
                                     (* 3 |y':58|) -2) 0)
                            (<= (+ (mod |z':56| 2) -1) 0)
                            (<= (+ (mod |z':56| 2) (- |x':57|)) 0)
                            (<= (- (mod |z':56| 2)) 0)
                            (<= (+ (- |y':58|) 1) 0))) (<= (- |K:68|) 0)
               (< (- |z':56|) 0) (<= (- |x':57|) 0) (<= (- |y':58|) 0)
               (<= (- |w':59|) 0) (= (+ (* 2 |y':58|) (- |w':59|)) 0)
               (= |havoc:12:54| 0) (not (= (+ |x':57| (- |y':58|)) 0))))
(check-sat)
